%%%mzn-stat: initTime=0.012341598
%%%mzn-stat: objective=313
%%%mzn-stat: nodes=18067
%%%mzn-stat: restarts=4
%%%mzn-stat: peakDepth=538
%%%mzn-stat: solveTime=2.725936649
%%%mzn-stat: variables=1113
%%%mzn-stat: propagators=2031
%%%mzn-stat: failures=13262
%%%mzn-stat: propagations=3047338
%%%mzn-stat: nogoods=13262
%%%mzn-stat: AverageConflictSize=14.090484089880862
%%%mzn-stat: NumUnitNogoodsLearned=232
%%%mzn-stat: AverageLearnedNogoodLength=45.14047654954004
%%%mzn-stat: AverageBacktrackAmount=0
%%%mzn-stat: AverageLbd=10.92927160307646
%%%mzn-stat-end
maxleg = 313;
succ = array1d(1..50,[4, 5, 41, 38, 32, 18, 23, 40, 24, 47, 2, 33, 34, 20, 3, 43, 45, 21, 35, 11, 39, 42, 10, 8, 36, 27, 22, 13, 50, 12, 48, 7, 46, 30, 28, 37, 16, 15, 9, 17, 19, 14, 26, 25, 1, 31, 6, 29, 44, 49]);
% time elapsed: 3.88 s
----------
%%%mzn-stat: initTime=0.012341598
%%%mzn-stat: objective=287
%%%mzn-stat: nodes=19077
%%%mzn-stat: restarts=7
%%%mzn-stat: peakDepth=538
%%%mzn-stat: solveTime=2.776495817
%%%mzn-stat: variables=1113
%%%mzn-stat: propagators=2031
%%%mzn-stat: failures=13423
%%%mzn-stat: propagations=3093485
%%%mzn-stat: nogoods=13423
%%%mzn-stat: AverageConflictSize=14.152052447291961
%%%mzn-stat: NumUnitNogoodsLearned=232
%%%mzn-stat: AverageLearnedNogoodLength=45.02123221336512
%%%mzn-stat: AverageBacktrackAmount=0
%%%mzn-stat: AverageLbd=11.057438724577219
%%%mzn-stat-end
maxleg = 287;
succ = array1d(1..50,[4, 5, 41, 38, 32, 9, 23, 40, 47, 39, 2, 33, 34, 20, 3, 43, 45, 24, 35, 11, 18, 42, 10, 6, 36, 27, 22, 13, 50, 12, 48, 7, 46, 30, 28, 37, 16, 15, 21, 17, 19, 14, 26, 25, 1, 31, 8, 29, 44, 49]);
% time elapsed: 3.93 s
----------
%%%mzn-stat: initTime=0.012341598
%%%mzn-stat: objective=286
%%%mzn-stat: nodes=20818
%%%mzn-stat: restarts=9
%%%mzn-stat: peakDepth=538
%%%mzn-stat: solveTime=2.920372137
%%%mzn-stat: variables=1113
%%%mzn-stat: propagators=2031
%%%mzn-stat: failures=14006
%%%mzn-stat: propagations=3257107
%%%mzn-stat: nogoods=14006
%%%mzn-stat: AverageConflictSize=14.07011280879623
%%%mzn-stat: NumUnitNogoodsLearned=232
%%%mzn-stat: AverageLearnedNogoodLength=44.96987005569042
%%%mzn-stat: AverageBacktrackAmount=0
%%%mzn-stat: AverageLbd=11.095459088961874
%%%mzn-stat-end
maxleg = 286;
succ = array1d(1..50,[4, 5, 20, 38, 32, 9, 23, 40, 47, 39, 22, 33, 34, 2, 3, 43, 45, 24, 35, 11, 18, 28, 10, 6, 36, 27, 42, 13, 50, 12, 48, 7, 46, 30, 14, 37, 16, 15, 21, 17, 19, 41, 26, 25, 1, 31, 8, 29, 44, 49]);
% time elapsed: 4.07 s
----------
%%%mzn-stat: initTime=0.012341598
%%%mzn-stat: objective=281
%%%mzn-stat: nodes=22722
%%%mzn-stat: restarts=15
%%%mzn-stat: peakDepth=538
%%%mzn-stat: solveTime=3.065520251
%%%mzn-stat: variables=1113
%%%mzn-stat: propagators=2031
%%%mzn-stat: failures=14604
%%%mzn-stat: propagations=3427864
%%%mzn-stat: nogoods=14604
%%%mzn-stat: AverageConflictSize=13.902766365379348
%%%mzn-stat: NumUnitNogoodsLearned=232
%%%mzn-stat: AverageLearnedNogoodLength=44.57915639550808
%%%mzn-stat: AverageBacktrackAmount=0
%%%mzn-stat: AverageLbd=11.162969049575459
%%%mzn-stat-end
maxleg = 281;
succ = array1d(1..50,[4, 3, 32, 5, 38, 9, 23, 40, 47, 39, 22, 33, 34, 2, 20, 43, 45, 24, 35, 11, 18, 28, 10, 6, 36, 27, 42, 13, 50, 12, 48, 7, 46, 30, 14, 37, 16, 15, 21, 17, 19, 41, 26, 25, 1, 31, 8, 29, 44, 49]);
% time elapsed: 4.22 s
----------
%%%mzn-stat: initTime=0.012341598
%%%mzn-stat: objective=277
%%%mzn-stat: nodes=23418
%%%mzn-stat: restarts=16
%%%mzn-stat: peakDepth=538
%%%mzn-stat: solveTime=3.093967838
%%%mzn-stat: variables=1113
%%%mzn-stat: propagators=2031
%%%mzn-stat: failures=14654
%%%mzn-stat: propagations=3448562
%%%mzn-stat: nogoods=14654
%%%mzn-stat: AverageConflictSize=13.948409990446294
%%%mzn-stat: NumUnitNogoodsLearned=232
%%%mzn-stat: AverageLearnedNogoodLength=44.75460625085301
%%%mzn-stat: AverageBacktrackAmount=0
%%%mzn-stat: AverageLbd=11.176538828988672
%%%mzn-stat-end
maxleg = 277;
succ = array1d(1..50,[4, 3, 32, 5, 38, 9, 23, 40, 47, 18, 22, 33, 34, 2, 20, 43, 45, 21, 35, 11, 39, 28, 10, 6, 36, 27, 42, 13, 50, 12, 48, 7, 46, 30, 14, 37, 16, 15, 24, 17, 19, 41, 26, 25, 1, 31, 8, 29, 44, 49]);
% time elapsed: 4.25 s
----------
%%%mzn-stat: initTime=0.012341598
%%%mzn-stat: objective=276
%%%mzn-stat: nodes=24015
%%%mzn-stat: restarts=17
%%%mzn-stat: peakDepth=538
%%%mzn-stat: solveTime=3.119937008
%%%mzn-stat: variables=1113
%%%mzn-stat: propagators=2031
%%%mzn-stat: failures=14707
%%%mzn-stat: propagations=3470140
%%%mzn-stat: nogoods=14707
%%%mzn-stat: AverageConflictSize=13.96273883184878
%%%mzn-stat: NumUnitNogoodsLearned=232
%%%mzn-stat: AverageLearnedNogoodLength=44.86591419052152
%%%mzn-stat: AverageBacktrackAmount=0
%%%mzn-stat: AverageLbd=11.187529747739172
%%%mzn-stat-end
maxleg = 276;
succ = array1d(1..50,[4, 3, 32, 5, 38, 9, 23, 40, 47, 18, 22, 33, 34, 2, 20, 43, 45, 21, 35, 11, 39, 28, 10, 6, 36, 27, 42, 13, 50, 12, 48, 7, 46, 30, 14, 37, 16, 15, 24, 17, 19, 41, 26, 25, 1, 31, 8, 29, 44, 49]);
% time elapsed: 4.28 s
----------
%%%mzn-stat: initTime=0.012341598
%%%mzn-stat: objective=275
%%%mzn-stat: nodes=24825
%%%mzn-stat: restarts=18
%%%mzn-stat: peakDepth=538
%%%mzn-stat: solveTime=3.152715462
%%%mzn-stat: variables=1113
%%%mzn-stat: propagators=2031
%%%mzn-stat: failures=14810
%%%mzn-stat: propagations=3506734
%%%mzn-stat: nogoods=14810
%%%mzn-stat: AverageConflictSize=13.956110735989196
%%%mzn-stat: NumUnitNogoodsLearned=232
%%%mzn-stat: AverageLearnedNogoodLength=44.80540175557056
%%%mzn-stat: AverageBacktrackAmount=0
%%%mzn-stat: AverageLbd=11.197164078325455
%%%mzn-stat-end
maxleg = 275;
succ = array1d(1..50,[4, 3, 32, 5, 38, 9, 23, 40, 47, 18, 22, 33, 34, 2, 20, 43, 45, 21, 35, 11, 39, 28, 10, 6, 36, 27, 42, 13, 50, 12, 48, 7, 46, 30, 14, 37, 16, 15, 24, 17, 19, 41, 26, 25, 1, 31, 8, 29, 44, 49]);
% time elapsed: 4.31 s
----------
%%%mzn-stat: initTime=0.012341598
%%%mzn-stat: objective=274
%%%mzn-stat: nodes=27290
%%%mzn-stat: restarts=19
%%%mzn-stat: peakDepth=538
%%%mzn-stat: solveTime=3.5689793180000002
%%%mzn-stat: variables=1113
%%%mzn-stat: propagators=2031
%%%mzn-stat: failures=16457
%%%mzn-stat: propagations=3843764
%%%mzn-stat: nogoods=16457
%%%mzn-stat: AverageConflictSize=14.107249194871484
%%%mzn-stat: NumUnitNogoodsLearned=232
%%%mzn-stat: AverageLearnedNogoodLength=44.59731421279699
%%%mzn-stat: AverageBacktrackAmount=0
%%%mzn-stat: AverageLbd=11.028863097769946
%%%mzn-stat-end
maxleg = 274;
succ = array1d(1..50,[4, 3, 32, 5, 38, 9, 23, 40, 47, 18, 22, 33, 34, 2, 20, 43, 45, 21, 35, 11, 39, 28, 10, 6, 36, 27, 42, 13, 50, 12, 48, 7, 46, 30, 14, 37, 16, 15, 24, 17, 19, 41, 26, 25, 1, 31, 8, 29, 44, 49]);
% time elapsed: 4.73 s
----------
%%%mzn-stat: initTime=0.012341598
%%%mzn-stat: objective=254
%%%mzn-stat: nodes=36588
%%%mzn-stat: restarts=51
%%%mzn-stat: peakDepth=538
%%%mzn-stat: solveTime=4.755149231
%%%mzn-stat: variables=1113
%%%mzn-stat: propagators=2031
%%%mzn-stat: failures=21076
%%%mzn-stat: propagations=5069266
%%%mzn-stat: nogoods=21076
%%%mzn-stat: AverageConflictSize=14.193252989182009
%%%mzn-stat: NumUnitNogoodsLearned=232
%%%mzn-stat: AverageLearnedNogoodLength=44.19301575251471
%%%mzn-stat: AverageBacktrackAmount=0
%%%mzn-stat: AverageLbd=11.411653065097742
%%%mzn-stat-end
maxleg = 254;
succ = array1d(1..50,[4, 14, 32, 3, 38, 18, 45, 40, 21, 23, 22, 33, 34, 28, 20, 43, 47, 9, 35, 11, 39, 27, 17, 10, 36, 6, 42, 13, 50, 12, 48, 5, 46, 30, 41, 37, 16, 15, 24, 7, 2, 19, 26, 25, 1, 31, 8, 29, 44, 49]);
% time elapsed: 5.92 s
----------
%%%mzn-stat: initTime=0.012341598
%%%mzn-stat: objective=253
%%%mzn-stat: nodes=37453
%%%mzn-stat: restarts=52
%%%mzn-stat: peakDepth=538
%%%mzn-stat: solveTime=4.830559228
%%%mzn-stat: variables=1113
%%%mzn-stat: propagators=2031
%%%mzn-stat: failures=21320
%%%mzn-stat: propagations=5130304
%%%mzn-stat: nogoods=21320
%%%mzn-stat: AverageConflictSize=14.212288930581613
%%%mzn-stat: NumUnitNogoodsLearned=232
%%%mzn-stat: AverageLearnedNogoodLength=44.23611632270169
%%%mzn-stat: AverageBacktrackAmount=0
%%%mzn-stat: AverageLbd=11.420356472795497
%%%mzn-stat-end
maxleg = 253;
succ = array1d(1..50,[4, 14, 32, 3, 15, 18, 45, 40, 21, 23, 22, 33, 34, 28, 38, 43, 47, 9, 35, 11, 39, 27, 17, 10, 36, 6, 42, 13, 50, 12, 48, 5, 46, 30, 41, 37, 16, 20, 24, 7, 2, 19, 26, 25, 1, 31, 8, 29, 44, 49]);
% time elapsed: 6.00 s
----------
%%%mzn-stat: initTime=0.012341598
%%%mzn-stat: objective=252
%%%mzn-stat: nodes=38027
%%%mzn-stat: restarts=53
%%%mzn-stat: peakDepth=538
%%%mzn-stat: solveTime=4.861365955
%%%mzn-stat: variables=1113
%%%mzn-stat: propagators=2031
%%%mzn-stat: failures=21384
%%%mzn-stat: propagations=5152307
%%%mzn-stat: nogoods=21384
%%%mzn-stat: AverageConflictSize=14.213851477740366
%%%mzn-stat: NumUnitNogoodsLearned=232
%%%mzn-stat: AverageLearnedNogoodLength=44.299102132435465
%%%mzn-stat: AverageBacktrackAmount=0
%%%mzn-stat: AverageLbd=11.425551814440704
%%%mzn-stat-end
maxleg = 252;
succ = array1d(1..50,[4, 14, 32, 3, 15, 18, 45, 40, 21, 23, 22, 33, 34, 28, 38, 43, 47, 9, 35, 11, 39, 27, 17, 10, 36, 6, 42, 13, 50, 12, 48, 5, 46, 30, 41, 37, 16, 20, 24, 7, 2, 19, 26, 25, 1, 31, 8, 29, 44, 49]);
% time elapsed: 6.03 s
----------
%%%mzn-stat: initTime=0.012341598
%%%mzn-stat: objective=248
%%%mzn-stat: nodes=41296
%%%mzn-stat: restarts=54
%%%mzn-stat: peakDepth=538
%%%mzn-stat: solveTime=5.491014911
%%%mzn-stat: variables=1113
%%%mzn-stat: propagators=2031
%%%mzn-stat: failures=23665
%%%mzn-stat: propagations=5664174
%%%mzn-stat: nogoods=23665
%%%mzn-stat: AverageConflictSize=14.78013944643989
%%%mzn-stat: NumUnitNogoodsLearned=232
%%%mzn-stat: AverageLearnedNogoodLength=45.994379885907456
%%%mzn-stat: AverageBacktrackAmount=0
%%%mzn-stat: AverageLbd=11.276442002957955
%%%mzn-stat-end
maxleg = 248;
succ = array1d(1..50,[4, 14, 5, 32, 15, 18, 45, 40, 21, 23, 20, 33, 34, 28, 38, 43, 47, 9, 35, 22, 39, 27, 17, 10, 36, 6, 42, 13, 50, 12, 48, 3, 46, 30, 41, 37, 16, 11, 24, 7, 2, 19, 26, 25, 1, 31, 8, 29, 44, 49]);
% time elapsed: 6.67 s
----------
%%%mzn-stat: initTime=0.012341598
%%%mzn-stat: objective=244
%%%mzn-stat: nodes=44880
%%%mzn-stat: restarts=59
%%%mzn-stat: peakDepth=538
%%%mzn-stat: solveTime=6.116396484
%%%mzn-stat: variables=1113
%%%mzn-stat: propagators=2031
%%%mzn-stat: failures=25925
%%%mzn-stat: propagations=6202960
%%%mzn-stat: nogoods=25925
%%%mzn-stat: AverageConflictSize=14.864725168756028
%%%mzn-stat: NumUnitNogoodsLearned=232
%%%mzn-stat: AverageLearnedNogoodLength=46.40420443587271
%%%mzn-stat: AverageBacktrackAmount=0
%%%mzn-stat: AverageLbd=11.199807135969142
%%%mzn-stat-end
maxleg = 244;
succ = array1d(1..50,[4, 14, 5, 32, 15, 9, 45, 40, 21, 18, 20, 33, 34, 28, 38, 43, 7, 47, 35, 22, 39, 27, 17, 10, 36, 6, 42, 13, 50, 12, 48, 3, 46, 30, 41, 37, 16, 11, 24, 23, 2, 19, 26, 25, 1, 31, 8, 29, 44, 49]);
% time elapsed: 7.30 s
----------
%%%mzn-stat: initTime=0.012341598
%%%mzn-stat: objective=243
%%%mzn-stat: nodes=45495
%%%mzn-stat: restarts=60
%%%mzn-stat: peakDepth=538
%%%mzn-stat: solveTime=6.165674858
%%%mzn-stat: variables=1113
%%%mzn-stat: propagators=2031
%%%mzn-stat: failures=26055
%%%mzn-stat: propagations=6236353
%%%mzn-stat: nogoods=26055
%%%mzn-stat: AverageConflictSize=14.888428324697754
%%%mzn-stat: NumUnitNogoodsLearned=232
%%%mzn-stat: AverageLearnedNogoodLength=46.498445595854925
%%%mzn-stat: AverageBacktrackAmount=0
%%%mzn-stat: AverageLbd=11.207330646708884
%%%mzn-stat-end
maxleg = 243;
succ = array1d(1..50,[4, 14, 5, 32, 15, 9, 45, 40, 21, 18, 20, 33, 34, 28, 38, 43, 7, 47, 35, 22, 39, 27, 17, 10, 36, 6, 42, 13, 50, 12, 48, 3, 46, 30, 41, 37, 16, 11, 24, 23, 2, 19, 26, 25, 1, 31, 8, 29, 44, 49]);
% time elapsed: 7.35 s
----------
%%%mzn-stat: initTime=0.012341598
%%%mzn-stat: objective=242
%%%mzn-stat: nodes=48751
%%%mzn-stat: restarts=62
%%%mzn-stat: peakDepth=538
%%%mzn-stat: solveTime=6.822571128
%%%mzn-stat: variables=1113
%%%mzn-stat: propagators=2031
%%%mzn-stat: failures=28268
%%%mzn-stat: propagations=6749197
%%%mzn-stat: nogoods=28268
%%%mzn-stat: AverageConflictSize=15.227854818168954
%%%mzn-stat: NumUnitNogoodsLearned=232
%%%mzn-stat: AverageLearnedNogoodLength=47.55094099334937
%%%mzn-stat: AverageBacktrackAmount=0
%%%mzn-stat: AverageLbd=11.152929107117588
%%%mzn-stat-end
maxleg = 242;
succ = array1d(1..50,[4, 11, 5, 32, 15, 9, 45, 40, 21, 18, 20, 33, 34, 41, 38, 6, 7, 47, 35, 22, 39, 27, 17, 10, 36, 25, 42, 13, 50, 12, 48, 3, 46, 30, 28, 37, 16, 2, 24, 23, 19, 14, 26, 43, 1, 31, 8, 29, 44, 49]);
% time elapsed: 8.01 s
----------
%%%mzn-stat: initTime=0.012341598
%%%mzn-stat: objective=241
%%%mzn-stat: nodes=49425
%%%mzn-stat: restarts=63
%%%mzn-stat: peakDepth=538
%%%mzn-stat: solveTime=6.877725985
%%%mzn-stat: variables=1113
%%%mzn-stat: propagators=2031
%%%mzn-stat: failures=28441
%%%mzn-stat: propagations=6795128
%%%mzn-stat: nogoods=28441
%%%mzn-stat: AverageConflictSize=15.260504201680673
%%%mzn-stat: NumUnitNogoodsLearned=232
%%%mzn-stat: AverageLearnedNogoodLength=47.591505221335396
%%%mzn-stat: AverageBacktrackAmount=0
%%%mzn-stat: AverageLbd=11.159101297422735
%%%mzn-stat-end
maxleg = 241;
succ = array1d(1..50,[4, 11, 5, 32, 15, 9, 45, 40, 21, 18, 20, 33, 34, 41, 38, 6, 7, 47, 35, 22, 39, 27, 17, 10, 36, 25, 42, 13, 50, 12, 48, 3, 46, 30, 28, 37, 16, 2, 24, 23, 19, 14, 26, 43, 1, 31, 8, 29, 44, 49]);
% time elapsed: 8.06 s
----------
%%%mzn-stat: initTime=0.012341598
%%%mzn-stat: objective=239
%%%mzn-stat: nodes=50406
%%%mzn-stat: restarts=65
%%%mzn-stat: peakDepth=538
%%%mzn-stat: solveTime=7.018856793
%%%mzn-stat: variables=1113
%%%mzn-stat: propagators=2031
%%%mzn-stat: failures=28879
%%%mzn-stat: propagations=6893515
%%%mzn-stat: nogoods=28879
%%%mzn-stat: AverageConflictSize=15.451885453097406
%%%mzn-stat: NumUnitNogoodsLearned=232
%%%mzn-stat: AverageLearnedNogoodLength=47.844835347484334
%%%mzn-stat: AverageBacktrackAmount=0
%%%mzn-stat: AverageLbd=11.166245368606946
%%%mzn-stat-end
maxleg = 239;
succ = array1d(1..50,[4, 11, 5, 32, 15, 9, 45, 40, 21, 18, 20, 13, 34, 28, 38, 6, 7, 47, 35, 22, 39, 27, 17, 10, 36, 25, 42, 12, 50, 41, 48, 3, 46, 30, 33, 37, 16, 2, 24, 23, 19, 14, 26, 43, 1, 31, 8, 29, 44, 49]);
% time elapsed: 8.21 s
----------
==========
% time elapsed: 34.75 s
%%%mzn-stat: initTime=0.012341598
%%%mzn-stat: objective=239
%%%mzn-stat: nodes=128577
%%%mzn-stat: restarts=223
%%%mzn-stat: peakDepth=538
%%%mzn-stat: solveTime=33.559415842
%%%mzn-stat: variables=1113
%%%mzn-stat: propagators=2031
%%%mzn-stat: failures=88937
%%%mzn-stat: propagations=20702393
%%%mzn-stat: nogoods=88937
%%%mzn-stat: AverageConflictSize=31.684529498408985
%%%mzn-stat: NumUnitNogoodsLearned=233
%%%mzn-stat: AverageLearnedNogoodLength=78.90289755669744
%%%mzn-stat: AverageBacktrackAmount=0
%%%mzn-stat: AverageLbd=10.49647503288845
%%%mzn-stat-end
